6814891056488697505011,4,1,2,014,13,1,2,012,5,1,2,010,7,1,2,013,2,1,2,015,10,1,2,07,8,1,2,06,3,1,2,08,15,1,2,012,12,1,2,04,11,1,2,09,2,1,2,015,1,1,2,03,9,1,2,02,13,1,2,08,4,1,2,01,10,1,2,08,15,1,2,01,7,1,2,010,6,1,2,07,8,1,2,01,14,1,2,08,2,1,2,010,1,1,2,012,5,1,2,08,10,1,2,02,1,1,2,01,10,1,2,03,4,1,2,012,9,1,2,04,7,1,2,010,3,1,2,06,14,1,2,012,8,1,2,08,1,1,2,010,8,1,2,04,2,1,2,013,11,1,2,07,3,1,2,04,6,1,2,013,2,1,2,09,7,1,2,09,4,1,2,03,13,1,2,010,5,1,2,012,4,1,2,09,6,1,2,09,1,1,2,015,11,1,2,08,5,1,2,0